datFiles = {"benchmark_data/Fpp17/10FPP_17S.txt_new","benchmark_data/Fpp17/11FPP_17S.txt_new","benchmark_data/Fpp17/12FPP_17S.txt_new","benchmark_data/Fpp17/13FPP_17S.txt_new","benchmark_data/Fpp17/14FPP_17S.txt_new","benchmark_data/Fpp17/15FPP_17S.txt_new","benchmark_data/Fpp17/16FPP_17S.txt_new","benchmark_data/Fpp17/17FPP_17S.txt_new","benchmark_data/Fpp17/18FPP_17S.txt_new","benchmark_data/Fpp17/19FPP_17S.txt_new","benchmark_data/Fpp17/1FPP_17S.txt_new","benchmark_data/Fpp17/20FPP_17S.txt_new","benchmark_data/Fpp17/21FPP_17S.txt_new","benchmark_data/Fpp17/22FPP_17S.txt_new","benchmark_data/Fpp17/23FPP_17S.txt_new","benchmark_data/Fpp17/24FPP_17S.txt_new","benchmark_data/Fpp17/25FPP_17S.txt_new","benchmark_data/Fpp17/26FPP_17S.txt_new","benchmark_data/Fpp17/27FPP_17S.txt_new","benchmark_data/Fpp17/28FPP_17S.txt_new","benchmark_data/Fpp17/29FPP_17S.txt_new","benchmark_data/Fpp17/2FPP_17S.txt_new","benchmark_data/Fpp17/30FPP_17S.txt_new","benchmark_data/Fpp17/3FPP_17S.txt_new","benchmark_data/Fpp17/4FPP_17S.txt_new","benchmark_data/Fpp17/5FPP_17S.txt_new","benchmark_data/Fpp17/6FPP_17S.txt_new","benchmark_data/Fpp17/7FPP_17S.txt_new","benchmark_data/Fpp17/8FPP_17S.txt_new","benchmark_data/Fpp17/9FPP_17S.txt_new"};
tests = fpp17;